Gurobi 12.0.3:   lim:time = 14400

  mip:bestbound = 1

Set parameter LogToConsole to value 1

  tech:outlev = 1

Set parameter Cuts to value 3

  cut:cuts = 3

Set parameter Presolve to value 2

  pre:solve = 2

Set parameter MIPFocus to value 2

  mip:focus = 2

Set parameter Symmetry to value 2

  mip:symmetry = 2

Set parameter InfUnbdInfo to value 1

Gurobi Optimizer version 12.0.3 build v12.0.3rc0 (win64 - Windows 11.0 (26100.2))



CPU model: 12th Gen Intel(R) Core(TM) i7-12700, instruction set [SSE2|AVX|AVX2]

Thread count: 12 physical cores, 20 logical processors, using up to 20 threads



Non-default parameters:

TimeLimit  14400

MIPFocus  2

Symmetry  2

Cuts  3

InfUnbdInfo  1

Presolve  2



Optimize a model with 219 rows, 190 columns and 1123 nonzeros

Model fingerprint: 0x2db6287a

Model has 1 quadratic objective term

Model has 4 quadratic constraints

Variable types: 21 continuous, 169 integer (0 binary)

Coefficient statistics:

  Matrix range     [1e+00, 1e+05]

  QMatrix range    [1e+00, 1e+00]

  QLMatrix range   [1e+00, 2e+01]

  Objective range  [9e+00, 1e+02]

  QObjective range [3e+00, 3e+00]

  Bounds range     [1e+00, 9e+01]

  RHS range        [1e+00, 1e+05]

  QRHS range       [1e+02, 1e+02]

Presolve removed 29 rows and 54 columns

Presolve time: 0.01s

Presolved: 228 rows, 172 columns, 1126 nonzeros

Variable types: 12 continuous, 160 integer (160 binary)

Found heuristic solution: objective 288.9200000

Root relaxation presolve removed 53 rows and 0 columns

Root relaxation presolved: 136 rows, 179 columns, 772 nonzeros





Root relaxation: objective 2.148506e+02, 31 iterations, 0.00 seconds (0.00 work units)



    Nodes    |    Current Node    |     Objective Bounds      |     Work

 Expl Unexpl |  Obj  Depth IntInf | Incumbent    BestBd   Gap | It/Node Time



     0     0  214.85057    0   13  288.92000  214.85057  25.6%     -    0s

H    0     0                     274.2200000  214.85057  21.7%     -    0s

     0     0  245.28000    0   13  274.22000  245.28000  10.6%     -    0s

     0     0  245.28000    0   15  274.22000  245.28000  10.6%     -    0s

     0     0  245.28301    0   18  274.22000  245.28301  10.6%     -    0s

     0     0  245.28301    0   10  274.22000  245.28301  10.6%     -    0s

H    0     0                     264.0100000  247.32000  6.32%     -    0s

     0     0  247.32000    0   10  264.01000  247.32000  6.32%     -    0s

     0     0  247.32000    0   12  264.01000  247.32000  6.32%     -    0s

     0     0  247.32000    0   14  264.01000  247.32000  6.32%     -    0s

     0     0  247.32000    0   14  264.01000  247.32000  6.32%     -    0s

     0     0  259.80872    0   10  264.01000  259.80872  1.59%     -    0s

     0     0  264.01000    0   10  264.01000  264.01000  0.00%     -    0s



Cutting planes:

  Learned: 8

  Implied bound: 1

  Flow cover: 3



Explored 1 nodes (162 simplex iterations) in 0.06 seconds (0.04 work units)

Thread count was 20 (of 20 available processors)



Solution count 3: 264.01 274.22 288.92 



Optimal solution found (tolerance 1.00e-04)

Best objective 2.640100000000e+02, best bound 2.640100000000e+02, gap 0.0000%



AMPL MP initial flat model has 190 variables (0 integer, 169 binary);

Objectives: 1 quadratic; 

Constraints:  219 linear; 4 quadratic;



AMPL MP final model has 190 variables (0 integer, 169 binary);

Objectives: 1 quadratic; 

Constraints:  219 linear; 4 quadratic;





-----RESULTS INFO-----
running_time:  0.15700000000000003
TC.best_bound:  264.01
TC:  264.01
MIP Gap (%):  0
=== Vehicle Routes ===
Vehicle 1: 0 → 3
Vehicle 1: 1 → 8
Vehicle 1: 2 → 14
Vehicle 1: 3 → 1
Vehicle 1: 8 → 13
Vehicle 1: 13 → 2
Vehicle 2: 0 → 14

=== Full Vehicle Routes ===
Vehicle 1: 0 → 3 → 1 → 8 → 13 → 2 → 0 (48<100)
Vehicle 2: 0 → 0 (0<100)
Arc used by MRT line: y variables:
Customer assigment to PL: u variables:
4 8
5 13
Node is served by regular vehicle: g variables:
1
2
3
13
8
Customer assigment to Home delivery: gm variables:
1
2
3
Node total demands: ntd variables:
1 18 1
2 8 1
3 2 1
5 0 0
12 0 0
13 8 1
6 0 0
7 0 0
8 12 1
9 0 0
10 0 0
11 0 0
Customer's demand delivered to PL: l variables:
4
5
Lockers load <= capacity:
0 <= 77
8 <= 82
0 <= 90
0 <= 93
12 <= 72
0 <= 98
0 <= 80
0 <= 98
